letting n =  10
letting blocks =  [[1, 1], [1, 4], [1, 9], [2, 5], [2, 8], [3, 1], [3, 5], [4, 3], [4, 4], [4, 5], [4, 6], [4, 9], [5, 5], [5, 7], [5, 9], [6, 2], [6, 3], [7, 1], [7, 7], [8, 1], [8, 2], [8, 3], [8, 9], [9, 3], [9, 5], [9, 6], [9, 9], [10, 4], [10, 6], [10, 9]]
